p cnf 10 27
-10 0
1 3 4 0
-9 -2 7 0
-4 0
8 3 -10 -9 0
10 -3 0
3 -10 6 0
-4 -3 6 0
10 4 -10 6 0
3 0
-8 -6 7 0
-8 -2 0
-7 10 -1 7 0
3 0
4 5 -9 0
-10 0
-9 0
1 2 0
9 -6 1 -1 0
10 3 0
3 -2 0
2 10 -5 -10 0
-3 7 0
10 -6 -10 6 0
-10 0
1 -4 -9 0
8 -2 -9 0
